3
29
62
40	31
1	2	6	9	27	4	
2	1	5	7	
3	3	5	13	8	6	31	2	
4	3	8	14	14	7	5	7	
5	1	8	8	
6	1	8	7	
7	3	16	8	12	8	29	2	
8	2	4	7	16	6	
9	2	5	11	16	7	
10	2	14	7	8	7	
11	1	9	4	
12	3	5	7	26	3	25	2	
13	1	7	10	
14	3	7	7	17	3	17	2	
15	1	4	6	
16	2	7	10	28	3	
17	1	6	13	
18	3	6	15	12	6	25	4	
19	1	20	4	
20	3	4	13	11	7	21	3	
21	3	7	8	10	7	29	3	
22	3	4	14	5	10	24	3	
23	3	6	10	7	7	23	2	
24	2	8	15	26	3	
25	2	4	13	7	7	
26	3	10	6	13	3	28	2	
27	3	5	10	5	8	13	7	
28	3	8	8	7	7	31	3	
29	1	27	4	
